
Gurobi 9.0.1 (linux64) logging started Thu Apr 30 05:57:52 2020

Gurobi Optimizer version 9.0.1 build v9.0.1rc0 (linux64)
Optimize a model with 872 rows, 990 columns and 6936 nonzeros
Model fingerprint: 0xb1692ca5
Variable types: 0 continuous, 990 integer (980 binary)
Coefficient statistics:
  Matrix range     [1e+00, 5e+00]
  Objective range  [1e+01, 1e+02]
  Bounds range     [1e+00, 1e+00]
  RHS range        [1e+00, 1e+00]

User MIP start produced solution with objective 568 (0.00s)
Loaded user MIP start with objective 568

Presolve removed 378 rows and 372 columns
Presolve time: 0.07s
Presolved: 494 rows, 618 columns, 4394 nonzeros
Variable types: 0 continuous, 618 integer (618 binary)

Root relaxation: objective 4.055694e+02, 253 iterations, 0.01 seconds

    Nodes    |    Current Node    |     Objective Bounds      |     Work
 Expl Unexpl |  Obj  Depth IntInf | Incumbent    BestBd   Gap | It/Node Time

     0     0  405.56944    0  105  568.00000  405.56944  28.6%     -    0s
     0     0  416.24286    0  106  568.00000  416.24286  26.7%     -    0s
H    0     0                     478.0000000  416.24286  12.9%     -    0s
     0     0  417.28293    0  120  478.00000  417.28293  12.7%     -    0s
     0     0  417.42759    0  115  478.00000  417.42759  12.7%     -    0s
     0     0  422.53383    0  146  478.00000  422.53383  11.6%     -    0s
     0     0  423.23904    0  143  478.00000  423.23904  11.5%     -    0s
     0     0  423.30735    0  150  478.00000  423.30735  11.4%     -    0s
     0     0  423.32580    0  151  478.00000  423.32580  11.4%     -    0s
     0     0  423.32949    0  155  478.00000  423.32949  11.4%     -    0s
     0     0  427.43220    0  150  478.00000  427.43220  10.6%     -    0s
     0     0  428.31388    0  156  478.00000  428.31388  10.4%     -    0s
     0     0  428.49340    0  156  478.00000  428.49340  10.4%     -    0s
     0     0  428.52003    0  158  478.00000  428.52003  10.4%     -    0s
     0     0  433.03880    0  158  478.00000  433.03880  9.41%     -    0s
     0     0  433.36639    0  167  478.00000  433.36639  9.34%     -    0s
     0     0  433.36639    0  168  478.00000  433.36639  9.34%     -    0s
     0     0  434.41890    0   87  478.00000  434.41890  9.12%     -    0s
     0     0  434.56442    0   87  478.00000  434.56442  9.09%     -    0s
     0     0  434.62561    0   91  478.00000  434.62561  9.07%     -    0s
     0     0  434.65761    0   87  478.00000  434.65761  9.07%     -    0s
     0     0  434.95489    0   95  478.00000  434.95489  9.01%     -    0s
     0     0  434.98621    0   98  478.00000  434.98621  9.00%     -    0s
     0     0  435.04637    0   96  478.00000  435.04637  8.99%     -    0s
     0     0  435.05021    0   97  478.00000  435.05021  8.99%     -    0s
     0     0  435.42246    0   98  478.00000  435.42246  8.91%     -    0s
     0     0  435.42246    0  100  478.00000  435.42246  8.91%     -    0s
     0     0  435.77419    0  100  478.00000  435.77419  8.83%     -    0s
     0     0  435.80348    0   98  478.00000  435.80348  8.83%     -    0s
     0     0  435.80348    0   99  478.00000  435.80348  8.83%     -    0s
     0     0  435.80348    0  100  478.00000  435.80348  8.83%     -    0s
     0     0  435.80348    0   93  478.00000  435.80348  8.83%     -    0s
     0     0  436.20002    0   80  478.00000  436.20002  8.74%     -    0s
     0     0  436.20002    0  153  478.00000  436.20002  8.74%     -    0s
     0     0  436.20002    0  129  478.00000  436.20002  8.74%     -    0s
     0     0  436.20002    0  149  478.00000  436.20002  8.74%     -    0s
     0     0  436.20002    0   93  478.00000  436.20002  8.74%     -    0s
     0     0  436.20002    0   93  478.00000  436.20002  8.74%     -    0s
     0     0  436.33926    0   88  478.00000  436.33926  8.72%     -    0s
     0     0  436.37000    0   91  478.00000  436.37000  8.71%     -    0s
     0     0  438.26852    0   92  478.00000  438.26852  8.31%     -    0s
     0     0  438.69811    0   93  478.00000  438.69811  8.22%     -    0s
     0     0  438.96610    0   90  478.00000  438.96610  8.17%     -    0s
     0     0  438.98002    0   94  478.00000  438.98002  8.16%     -    0s
     0     0  439.47638    0   89  478.00000  439.47638  8.06%     -    0s
     0     0  439.53729    0   98  478.00000  439.53729  8.05%     -    0s
     0     0  439.56436    0   92  478.00000  439.56436  8.04%     -    0s
     0     0  439.58046    0   90  478.00000  439.58046  8.04%     -    0s
     0     0  440.17238    0   99  478.00000  440.17238  7.91%     -    0s
     0     0  440.24082    0   96  478.00000  440.24082  7.90%     -    0s
     0     0  440.24082    0   94  478.00000  440.24082  7.90%     -    1s
H    0     0                     476.0000000  440.24082  7.51%     -    1s
     0     2  440.24082    0   94  476.00000  440.24082  7.51%     -    1s
*   22     9              16     468.0000000  446.50000  4.59%  20.5    1s
*   30     5               6     466.0000000  454.83333  2.40%  18.2    1s
*   35     1              13     462.0000000  458.00000  0.87%  17.0    1s

Cutting planes:
  Gomory: 2
  MIR: 14
  GUB cover: 1
  Zero half: 17
  RLT: 5

Explored 37 nodes (2653 simplex iterations) in 1.40 seconds
Thread count was 1 (of 40 available processors)

Solution count 6: 462 466 468 ... 568

Optimal solution found (tolerance 1.00e-04)
Best objective 4.620000000000e+02, best bound 4.620000000000e+02, gap 0.0000%

User-callback calls 767, time in user-callback 0.00 sec
